0 15.00 135.00
1 15.00 141.00
2 15.00 147.00
3 15.00 153.00
4 15.00 159.00
5 15.00 165.00
6 15.00 171.00
7 15.00 177.00
8 15.00 183.00
9 15.00 189.00
10 15.00 195.00
11 15.00 198.00
12 15.00 201.00
13 15.00 204.00
14 15.00 207.00
15 15.00 210.00
16 15.00 213.00
17 15.00 216.00
18 15.00 219.00
19 15.00 222.00
20 15.00 225.00
21 18.00 225.00
22 21.00 225.00
23 24.00 225.00
24 27.00 225.00
25 30.00 225.00
26 33.00 225.00
27 36.00 225.00
28 39.00 225.00
29 42.00 225.00
30 45.00 225.00
31 51.00 225.00
32 57.00 225.00
33 63.00 225.00
34 69.00 225.00
35 75.00 225.00
36 81.00 225.00
37 87.00 225.00
38 93.00 225.00
39 99.00 225.00
40 105.00 225.00
41 111.00 225.00
42 117.00 225.00
43 123.00 225.00
44 129.00 225.00
45 135.00 225.00
46 138.00 225.00
47 141.00 225.00
48 144.00 225.00
49 147.00 225.00
50 150.00 225.00
51 153.00 225.00
52 156.00 225.00
53 159.00 225.00
54 162.00 225.00
55 165.00 225.00
56 165.00 222.00
57 165.00 219.00
58 165.00 216.00
59 165.00 213.00
60 165.00 210.00
61 165.00 207.00
62 165.00 204.00
63 165.00 201.00
64 165.00 198.00
65 165.00 195.00
66 165.00 189.00
67 165.00 183.00
68 165.00 177.00
69 165.00 171.00
70 165.00 165.00
71 165.00 159.00
72 165.00 153.00
73 165.00 147.00
74 165.00 141.00
75 165.00 135.00
76 165.00 129.00
77 165.00 123.00
78 165.00 117.00
79 165.00 111.00
80 165.00 105.00
81 165.00 99.00
82 165.00 93.00
83 165.00 87.00
84 165.00 81.00
85 165.00 75.00
86 165.00 72.00
87 165.00 69.00
88 165.00 66.00
89 165.00 63.00
90 165.00 60.00
91 165.00 57.00
92 165.00 54.00
93 165.00 51.00
94 165.00 48.00
95 165.00 45.00
96 168.00 45.00
97 171.00 45.00
98 174.00 45.00
99 177.00 45.00
100 180.00 45.00
101 183.00 45.00
102 186.00 45.00
103 189.00 45.00
104 192.00 45.00
105 195.00 45.00
106 198.00 45.00
107 201.00 45.00
108 204.00 45.00
109 207.00 45.00
110 210.00 45.00
111 213.00 45.00
112 216.00 45.00
113 219.00 45.00
114 222.00 45.00
115 225.00 45.00
116 225.00 42.00
117 225.00 39.00
118 225.00 36.00
119 225.00 33.00
120 225.00 30.00
121 225.00 27.00
122 225.00 24.00
123 225.00 21.00
124 225.00 18.00
125 225.00 15.00
126 222.00 15.00
127 219.00 15.00
128 216.00 15.00
129 213.00 15.00
130 210.00 15.00
131 207.00 15.00
132 204.00 15.00
133 201.00 15.00
134 198.00 15.00
135 195.00 15.00
136 189.00 15.00
137 183.00 15.00
138 177.00 15.00
139 171.00 15.00
140 165.00 15.00
141 162.00 15.00
142 159.00 15.00
143 156.00 15.00
144 153.00 15.00
145 150.00 15.00
146 147.00 15.00
147 144.00 15.00
148 141.00 15.00
149 138.00 15.00
150 135.00 15.00
151 135.00 18.00
152 135.00 21.00
153 135.00 24.00
154 135.00 27.00
155 135.00 30.00
156 135.00 33.00
157 135.00 36.00
158 135.00 39.00
159 135.00 42.00
160 135.00 45.00
161 135.00 51.00
162 135.00 57.00
163 135.00 63.00
164 135.00 69.00
165 135.00 75.00
166 135.00 81.00
167 135.00 87.00
168 135.00 93.00
169 135.00 99.00
170 135.00 105.00
171 135.00 111.00
172 135.00 117.00
173 135.00 123.00
174 135.00 129.00
175 135.00 135.00
176 135.00 141.00
177 135.00 147.00
178 135.00 153.00
179 135.00 159.00
180 135.00 165.00
181 135.00 168.00
182 135.00 171.00
183 135.00 174.00
184 135.00 177.00
185 135.00 180.00
186 135.00 183.00
187 135.00 186.00
188 135.00 189.00
189 135.00 192.00
190 135.00 195.00
191 132.00 195.00
192 129.00 195.00
193 126.00 195.00
194 123.00 195.00
195 120.00 195.00
196 117.00 195.00
197 114.00 195.00
198 111.00 195.00
199 108.00 195.00
200 105.00 195.00
201 105.00 192.00
202 105.00 189.00
203 105.00 186.00
204 105.00 183.00
205 105.00 180.00
206 105.00 177.00
207 105.00 174.00
208 105.00 171.00
209 105.00 168.00
210 105.00 165.00
211 105.00 159.00
212 105.00 153.00
213 105.00 147.00
214 105.00 141.00
215 105.00 135.00
216 105.00 129.00
217 105.00 123.00
218 105.00 117.00
219 105.00 111.00
220 105.00 105.00
221 105.00 99.00
222 105.00 93.00
223 105.00 87.00
224 105.00 81.00
225 105.00 75.00
226 105.00 69.00
227 105.00 63.00
228 105.00 57.00
229 105.00 51.00
230 105.00 45.00
231 105.00 42.00
232 105.00 39.00
233 105.00 36.00
234 105.00 33.00
235 105.00 30.00
236 105.00 27.00
237 105.00 24.00
238 105.00 21.00
239 105.00 18.00
240 105.00 15.00
241 102.00 15.00
242 99.00 15.00
243 96.00 15.00
244 93.00 15.00
245 90.00 15.00
246 87.00 15.00
247 84.00 15.00
248 81.00 15.00
249 78.00 15.00
250 75.00 15.00
251 75.00 18.00
252 75.00 21.00
253 75.00 24.00
254 75.00 27.00
255 75.00 30.00
256 75.00 33.00
257 75.00 36.00
258 75.00 39.00
259 75.00 42.00
260 75.00 45.00
261 75.00 51.00
262 75.00 57.00
263 75.00 63.00
264 75.00 69.00
265 75.00 75.00
266 75.00 81.00
267 75.00 87.00
268 75.00 93.00
269 75.00 99.00
270 75.00 105.00
271 75.00 111.00
272 75.00 117.00
273 75.00 123.00
274 75.00 129.00
275 75.00 135.00
276 75.00 141.00
277 75.00 147.00
278 75.00 153.00
279 75.00 159.00
280 75.00 165.00
281 75.00 168.00
282 75.00 171.00
283 75.00 174.00
284 75.00 177.00
285 75.00 180.00
286 75.00 183.00
287 75.00 186.00
288 75.00 189.00
289 75.00 192.00
290 75.00 195.00
291 72.00 195.00
292 69.00 195.00
293 66.00 195.00
294 63.00 195.00
295 60.00 195.00
296 57.00 195.00
297 54.00 195.00
298 51.00 195.00
299 48.00 195.00
300 45.00 195.00
301 45.00 192.00
302 45.00 189.00
303 45.00 186.00
304 45.00 183.00
305 45.00 180.00
306 45.00 177.00
307 45.00 174.00
308 45.00 171.00
309 45.00 168.00
310 45.00 165.00
311 45.00 159.00
312 45.00 153.00
313 45.00 147.00
314 45.00 141.00
315 45.00 135.00
316 45.00 129.00
317 45.00 123.00
318 45.00 117.00
319 45.00 111.00
320 45.00 105.00
321 45.00 102.00
322 45.00 99.00
323 45.00 96.00
324 45.00 93.00
325 45.00 90.00
326 45.00 87.00
327 45.00 84.00
328 45.00 81.00
329 45.00 78.00
330 45.00 75.00
331 42.00 75.00
332 39.00 75.00
333 36.00 75.00
334 33.00 75.00
335 30.00 75.00
336 27.00 75.00
337 24.00 75.00
338 21.00 75.00
339 18.00 75.00
340 15.00 75.00
341 15.00 78.00
342 15.00 81.00
343 15.00 84.00
344 15.00 87.00
345 15.00 90.00
346 15.00 93.00
347 15.00 96.00
348 15.00 99.00
349 15.00 102.00
350 15.00 105.00
